submitit INFO (2023-04-29 16:24:40,849) - Starting with JobEnvironment(job_id=27461, hostname=cpunode3, local_rank=2(5), node=0(1), global_rank=2(5))
submitit INFO (2023-04-29 16:24:40,850) - Loading pickle: /h/30/pashootan/Matrix-Mult-CP/src/../logs/2x2x2_2_Apr29_16:24:38/27461_submitted.pkl
 ! --------------------------------------------------- CP Optimizer 22.1.1.0 --
 ! Satisfiability problem - 24 variables, 64 constraints
 ! TimeLimit            = 172800
 ! Workers              = 8
 ! LogPeriod            = 10000000
 ! RandomSeed           = 5149
 ! Initial process time : 0.00s (0.00s extraction + 0.00s propagation)
 !  . Log search space  : 38.0 (before), 38.0 (after)
 !  . Memory usage      : 332.0 kB (before), 332.0 kB (after)
 ! Using parallel search with 8 workers.
 ! ----------------------------------------------------------------------------
 !               Branches  Non-fixed    W       Branch decision
 ! ----------------------------------------------------------------------------
 ! Search completed, model has no solution.
 ! ----------------------------------------------------------------------------
 ! Number of branches     : 4322
 ! Number of fails        : 2171
 ! Total memory usage     : 4.9 MB (4.9 MB CP Optimizer + 0.0 MB Concert)
 ! Time spent in solve    : 0.03s (0.03s engine + 0.00s extraction)
 ! Search speed (br. / s) : 216100.0
 ! ----------------------------------------------------------------------------
Infeasible
Saving stats to: /h/30/pashootan/Matrix-Mult-CP/logs/2x2x2_2_Apr29_16:24:38/27461_2_stats.csv
submitit INFO (2023-04-29 16:24:41,518) - Job completed successfully
